p cnf 50 145
a 3 39 0
e 1 2 4 5 6 7 8 9 10 11 12 13 14 15 16 17 18 19 20 21 22 23 24 25 26 27 28 29 30 31 32 33 34 35 36 37 38 40 41 42 43 44 45 46 47 48 49 50 0
-3 -1 0
-3 2 0
1 -2 3 0
6 4 0
6 -5 0
-4 5 -6 0
-7 1 0
-7 6 0
-1 -6 7 0
1 8 -9 0
-1 -8 -9 0
1 -8 9 0
-1 8 9 0
-10 9 0
-10 -6 0
-9 6 10 0
11 10 0
11 -2 0
-10 2 -11 0
12 7 0
12 11 0
-7 -11 -12 0
13 -11 0
13 10 0
11 -10 -13 0
-14 8 0
-14 -13 0
-8 13 14 0
-15 12 0
-15 -14 0
-12 14 15 0
17 -16 0
17 -2 0
16 2 -17 0
-18 -2 0
-18 17 0
2 -17 18 0
-15 18 -19 0
15 -18 -19 0
-15 -18 19 0
15 18 19 0
-20 -7 0
-20 8 0
7 -8 20 0
-19 20 -21 0
19 -20 -21 0
-19 -20 21 0
19 20 21 0
23 -22 0
23 2 0
22 -2 -23 0
16 -23 -24 0
-16 23 -24 0
16 23 24 0
-16 -23 24 0
24 -1 -25 0
-24 1 -25 0
24 1 25 0
-24 -1 25 0
27 -22 0
27 -26 0
22 26 -27 0
-28 27 0
-28 -22 0
-27 22 28 0
25 28 -29 0
-25 -28 -29 0
25 -28 29 0
-25 28 29 0
-30 -26 0
-30 -26 0
26 30 0
-29 30 -31 0
29 -30 -31 0
-29 -30 31 0
29 30 31 0
21 -31 -32 0
-21 31 -32 0
21 31 32 0
-21 -31 32 0
33 3 0
33 32 0
-3 -32 -33 0
34 -27 0
34 9 0
27 -9 -34 0
34 8 -35 0
-34 -8 -35 0
34 -8 35 0
-34 8 35 0
36 -4 0
36 23 0
4 -23 -36 0
38 -34 0
38 -37 0
34 37 -38 0
39 36 0
39 38 0
-36 -38 -39 0
-35 -39 -40 0
35 39 -40 0
-35 39 40 0
35 -39 40 0
-41 -33 0
-41 -40 0
33 40 41 0
-42 26 0
-42 27 0
-26 -27 42 0
-22 1 -43 0
22 -1 -43 0
-22 -1 43 0
22 1 43 0
44 -7 0
44 43 0
7 -43 -44 0
-45 -44 0
-45 24 0
44 -24 45 0
46 -42 0
46 -45 0
42 45 -46 0
-48 -47 0
-48 16 0
47 -16 48 0
49 -46 0
49 -48 0
46 48 -49 0
-50 -41 0
-50 49 0
41 -49 50 0
41 26 0
-24 45 28 -14 0
8 34 9 0
13 29 -48 -8 -12 -25 -43 0
9 -25 -16 -36 -18 0
-11 -29 -42 -25 4 -9 0
7 26 27 3 -44 11 0
25 -18 13 -21 -11 34 0
-23 37 -34 -20 0
13 47 32 -21 3 -5 41 22 0
50 -23 8 24 -38 0
-21 23 -22 -49 -34 7 0
27 48 -9 -29 0
50 0
